43 63 6 94 46 86 95 59 16 83 13 71 70 9 50 67 98 91 4 62 27 12 68 22 19 40 45 15 78 31 75 82 8 90 38 51 72 37 74 58 85 93 84 20 66 11 29 76 53 48 3 28 42 30 23 33 18 65 55 21 77 88 73 89 60 1 81 52 14 69 7 24 44 54 5 61 41 25 17 26 0 49 96 34 57 36 80 47 39 87 32 35 64 10 97 2 56 92 99 79